FourierSAT_Github_AIJ/benchmarks/MAXSAT_benchmarks/3/bipartite/maxcut-140-630-0.8/maxcut-140-630-0.8-8.cnf
c strEdges: 125  randomEdges: 504 
c degrees:  1  2 
c girth: Inf max: -43.604516  
c Hgirth mixed MAXCUT instance
c generated from an undirected graph
c to solve unweighted MaxCut
p cnf 140 1258
140 23 0
-140 -23 0
140 139 0
-140 -139 0
98 129 0
-98 -129 0
98 136 0
-98 -136 0
37 6 0
-37 -6 0
37 137 0
-37 -137 0
106 55 0
-106 -55 0
106 46 0
-106 -46 0
38 105 0
-38 -105 0
38 113 0
-38 -113 0
20 121 0
-20 -121 0
20 56 0
-20 -56 0
71 97 0
-71 -97 0
71 126 0
-71 -126 0
57 73 0
-57 -73 0
57 105 0
-57 -105 0
86 69 0
-86 -69 0
86 102 0
-86 -102 0
45 99 0
-45 -99 0
24 41 0
-24 -41 0
24 59 0
-24 -59 0
28 123 0
-28 -123 0
28 84 0
-28 -84 0
103 114 0
-103 -114 0
103 73 0
-103 -73 0
32 62 0
-32 -62 0
32 23 0
-32 -23 0
53 43 0
-53 -43 0
53 7 0
-53 -7 0
1 136 0
-1 -136 0
1 123 0
-1 -123 0
76 116 0
-76 -116 0
76 34 0
-76 -34 0
9 82 0
-9 -82 0
9 116 0
-9 -116 0
77 124 0
-77 -124 0
77 93 0
-77 -93 0
117 12 0
-117 -12 0
117 94 0
-117 -94 0
27 120 0
-27 -120 0
27 26 0
-27 -26 0
50 78 0
-50 -78 0
36 7 0
-36 -7 0
36 64 0
-36 -64 0
25 84 0
-25 -84 0
19 10 0
-19 -10 0
19 14 0
-19 -14 0
112 18 0
-112 -18 0
112 81 0
-112 -81 0
22 95 0
-22 -95 0
22 33 0
-22 -33 0
125 127 0
-125 -127 0
35 128 0
-35 -128 0
119 83 0
-119 -83 0
119 101 0
-119 -101 0
111 4 0
-111 -4 0
111 100 0
-111 -100 0
75 137 0
-75 -137 0
75 92 0
-75 -92 0
11 85 0
-11 -85 0
11 120 0
-11 -120 0
122 92 0
-122 -92 0
122 132 0
-122 -132 0
72 132 0
-72 -132 0
72 121 0
-72 -121 0
8 3 0
-8 -3 0
8 54 0
-8 -54 0
70 96 0
-70 -96 0
70 5 0
-70 -5 0
108 46 0
-108 -46 0
108 39 0
-108 -39 0
29 60 0
-29 -60 0
29 82 0
-29 -82 0
135 49 0
-135 -49 0
135 83 0
-135 -83 0
91 26 0
-91 -26 0
104 90 0
-104 -90 0
104 60 0
-104 -60 0
31 89 0
-31 -89 0
31 41 0
-31 -41 0
115 139 0
-115 -139 0
65 34 0
-65 -34 0
65 89 0
-65 -89 0
51 118 0
-51 -118 0
51 129 0
-51 -129 0
63 59 0
-63 -59 0
63 62 0
-63 -62 0
48 100 0
-48 -100 0
48 95 0
-48 -95 0
133 94 0
-133 -94 0
133 6 0
-133 -6 0
107 68 0
-107 -68 0
107 49 0
-107 -49 0
66 80 0
-66 -80 0
130 39 0
-130 -39 0
130 79 0
-130 -79 0
2 16 0
-2 -16 0
109 61 0
-109 -61 0
109 58 0
-109 -58 0
21 5 0
-21 -5 0
138 101 0
-138 -101 0
138 3 0
-138 -3 0
13 64 0
-13 -64 0
13 114 0
-13 -114 0
87 33 0
-87 -33 0
87 55 0
-87 -55 0
15 93 0
-15 -93 0
15 97 0
-15 -97 0
88 14 0
-88 -14 0
88 68 0
-88 -68 0
44 56 0
-44 -56 0
110 58 0
-110 -58 0
110 4 0
-110 -4 0
40 126 0
-40 -126 0
40 99 0
-40 -99 0
47 54 0
-47 -54 0
52 79 0
-52 -79 0
52 90 0
-52 -90 0
17 81 0
-17 -81 0
74 113 0
-74 -113 0
74 96 0
-74 -96 0
134 30 0
-134 -30 0
131 102 0
-131 -102 0
42 67 0
-42 -67 0
42 12 0
-42 -12 0
119 127 0
-119 -127 0
105 124 0
-105 -124 0
35 89 0
-35 -89 0
6 64 0
-6 -64 0
52 3 0
-52 -3 0
122 85 0
-122 -85 0
119 93 0
-119 -93 0
25 35 0
-25 -35 0
21 90 0
-21 -90 0
74 23 0
-74 -23 0
8 83 0
-8 -83 0
35 121 0
-35 -121 0
63 10 0
-63 -10 0
11 122 0
-11 -122 0
123 90 0
-123 -90 0
111 34 0
-111 -34 0
20 77 0
-20 -77 0
97 64 0
-97 -64 0
12 4 0
-12 -4 0
17 96 0
-17 -96 0
71 5 0
-71 -5 0
125 33 0
-125 -33 0
24 48 0
-24 -48 0
35 29 0
-35 -29 0
35 49 0
-35 -49 0
40 85 0
-40 -85 0
38 82 0
-38 -82 0
42 118 0
-42 -118 0
88 55 0
-88 -55 0
121 3 0
-121 -3 0
88 126 0
-88 -126 0
66 15 0
-66 -15 0
31 54 0
-31 -54 0
2 62 0
-2 -62 0
108 54 0
-108 -54 0
35 133 0
-35 -133 0
27 124 0
-27 -124 0
77 95 0
-77 -95 0
109 83 0
-109 -83 0
83 34 0
-83 -34 0
38 11 0
-38 -11 0
38 17 0
-38 -17 0
11 4 0
-11 -4 0
133 85 0
-133 -85 0
134 34 0
-134 -34 0
50 69 0
-50 -69 0
21 12 0
-21 -12 0
45 80 0
-45 -80 0
117 137 0
-117 -137 0
11 67 0
-11 -67 0
20 104 0
-20 -104 0
110 84 0
-110 -84 0
57 127 0
-57 -127 0
117 18 0
-117 -18 0
133 39 0
-133 -39 0
97 41 0
-97 -41 0
98 3 0
-98 -3 0
80 58 0
-80 -58 0
9 115 0
-9 -115 0
45 84 0
-45 -84 0
57 79 0
-57 -79 0
71 92 0
-71 -92 0
6 96 0
-6 -96 0
26 93 0
-26 -93 0
1 90 0
-1 -90 0
7 68 0
-7 -68 0
77 69 0
-77 -69 0
114 128 0
-114 -128 0
77 47 0
-77 -47 0
133 21 0
-133 -21 0
11 42 0
-11 -42 0
42 3 0
-42 -3 0
28 44 0
-28 -44 0
92 93 0
-92 -93 0
1 119 0
-1 -119 0
57 24 0
-57 -24 0
27 34 0
-27 -34 0
24 119 0
-24 -119 0
72 74 0
-72 -74 0
19 102 0
-19 -102 0
17 4 0
-17 -4 0
13 56 0
-13 -56 0
32 105 0
-32 -105 0
51 132 0
-51 -132 0
136 46 0
-136 -46 0
133 34 0
-133 -34 0
2 49 0
-2 -49 0
12 127 0
-12 -127 0
111 139 0
-111 -139 0
104 118 0
-104 -118 0
125 49 0
-125 -49 0
65 68 0
-65 -68 0
121 81 0
-121 -81 0
57 41 0
-57 -41 0
111 134 0
-111 -134 0
116 34 0
-116 -34 0
82 120 0
-82 -120 0
13 99 0
-13 -99 0
117 27 0
-117 -27 0
111 80 0
-111 -80 0
18 34 0
-18 -34 0
47 68 0
-47 -68 0
74 124 0
-74 -124 0
15 14 0
-15 -14 0
83 101 0
-83 -101 0
11 55 0
-11 -55 0
36 104 0
-36 -104 0
112 13 0
-112 -13 0
65 10 0
-65 -10 0
76 41 0
-76 -41 0
38 7 0
-38 -7 0
38 9 0
-38 -9 0
78 4 0
-78 -4 0
70 127 0
-70 -127 0
140 4 0
-140 -4 0
39 61 0
-39 -61 0
104 85 0
-104 -85 0
124 68 0
-124 -68 0
17 59 0
-17 -59 0
117 58 0
-117 -58 0
99 132 0
-99 -132 0
24 103 0
-24 -103 0
75 30 0
-75 -30 0
38 108 0
-38 -108 0
107 87 0
-107 -87 0
117 44 0
-117 -44 0
98 76 0
-98 -76 0
84 34 0
-84 -34 0
125 83 0
-125 -83 0
4 54 0
-4 -54 0
100 93 0
-100 -93 0
106 104 0
-106 -104 0
64 93 0
-64 -93 0
54 81 0
-54 -81 0
140 67 0
-140 -67 0
119 91 0
-119 -91 0
31 66 0
-31 -66 0
128 46 0
-128 -46 0
19 135 0
-19 -135 0
92 139 0
-92 -139 0
53 63 0
-53 -63 0
107 41 0
-107 -41 0
71 87 0
-71 -87 0
19 82 0
-19 -82 0
76 10 0
-76 -10 0
138 132 0
-138 -132 0
47 39 0
-47 -39 0
50 114 0
-50 -114 0
40 7 0
-40 -7 0
51 23 0
-51 -23 0
1 52 0
-1 -52 0
25 135 0
-25 -135 0
63 56 0
-63 -56 0
51 113 0
-51 -113 0
48 2 0
-48 -2 0
106 128 0
-106 -128 0
98 108 0
-98 -108 0
74 93 0
-74 -93 0
105 68 0
-105 -68 0
70 95 0
-70 -95 0
63 16 0
-63 -16 0
134 131 0
-134 -131 0
50 95 0
-50 -95 0
130 102 0
-130 -102 0
105 69 0
-105 -69 0
70 79 0
-70 -79 0
137 89 0
-137 -89 0
24 68 0
-24 -68 0
133 92 0
-133 -92 0
134 3 0
-134 -3 0
37 31 0
-37 -31 0
63 116 0
-63 -116 0
85 79 0
-85 -79 0
14 81 0
-14 -81 0
86 11 0
-86 -11 0
48 110 0
-48 -110 0
50 108 0
-50 -108 0
133 90 0
-133 -90 0
77 114 0
-77 -114 0
120 7 0
-120 -7 0
3 100 0
-3 -100 0
40 136 0
-40 -136 0
18 67 0
-18 -67 0
55 105 0
-55 -105 0
1 6 0
-1 -6 0
132 101 0
-132 -101 0
132 30 0
-132 -30 0
125 11 0
-125 -11 0
76 115 0
-76 -115 0
50 75 0
-50 -75 0
7 101 0
-7 -101 0
140 6 0
-140 -6 0
115 138 0
-115 -138 0
112 42 0
-112 -42 0
70 18 0
-70 -18 0
9 78 0
-9 -78 0
35 69 0
-35 -69 0
123 18 0
-123 -18 0
130 69 0
-130 -69 0
18 118 0
-18 -118 0
8 89 0
-8 -89 0
19 60 0
-19 -60 0
69 84 0
-69 -84 0
27 51 0
-27 -51 0
66 123 0
-66 -123 0
27 68 0
-27 -68 0
125 88 0
-125 -88 0
29 110 0
-29 -110 0
48 4 0
-48 -4 0
8 49 0
-8 -49 0
115 54 0
-115 -54 0
8 113 0
-8 -113 0
8 97 0
-8 -97 0
133 88 0
-133 -88 0
104 47 0
-104 -47 0
86 5 0
-86 -5 0
133 137 0
-133 -137 0
65 18 0
-65 -18 0
70 51 0
-70 -51 0
38 47 0
-38 -47 0
48 13 0
-48 -13 0
117 35 0
-117 -35 0
116 14 0
-116 -14 0
91 131 0
-91 -131 0
72 87 0
-72 -87 0
107 6 0
-107 -6 0
28 11 0
-28 -11 0
53 52 0
-53 -52 0
27 121 0
-27 -121 0
122 126 0
-122 -126 0
35 11 0
-35 -11 0
129 139 0
-129 -139 0
63 130 0
-63 -130 0
1 47 0
-1 -47 0
119 42 0
-119 -42 0
98 71 0
-98 -71 0
57 128 0
-57 -128 0
114 78 0
-114 -78 0
109 41 0
-109 -41 0
106 83 0
-106 -83 0
71 9 0
-71 -9 0
119 2 0
-119 -2 0
3 14 0
-3 -14 0
74 82 0
-74 -82 0
9 136 0
-9 -136 0
130 5 0
-130 -5 0
104 33 0
-104 -33 0
13 18 0
-13 -18 0
134 81 0
-134 -81 0
105 3 0
-105 -3 0
44 134 0
-44 -134 0
127 46 0
-127 -46 0
85 139 0
-85 -139 0
29 134 0
-29 -134 0
32 19 0
-32 -19 0
133 4 0
-133 -4 0
108 48 0
-108 -48 0
42 82 0
-42 -82 0
88 61 0
-88 -61 0
115 105 0
-115 -105 0
25 46 0
-25 -46 0
34 113 0
-34 -113 0
88 52 0
-88 -52 0
35 90 0
-35 -90 0
8 87 0
-8 -87 0
82 14 0
-82 -14 0
24 54 0
-24 -54 0
82 79 0
-82 -79 0
71 33 0
-71 -33 0
128 5 0
-128 -5 0
125 23 0
-125 -23 0
77 105 0
-77 -105 0
109 18 0
-109 -18 0
101 79 0
-101 -79 0
85 67 0
-85 -67 0
103 7 0
-103 -7 0
2 109 0
-2 -109 0
116 80 0
-116 -80 0
99 3 0
-99 -3 0
37 34 0
-37 -34 0
85 3 0
-85 -3 0
47 52 0
-47 -52 0
65 60 0
-65 -60 0
131 6 0
-131 -6 0
112 58 0
-112 -58 0
36 113 0
-36 -113 0
76 39 0
-76 -39 0
22 8 0
-22 -8 0
53 110 0
-53 -110 0
126 113 0
-126 -113 0
15 99 0
-15 -99 0
125 5 0
-125 -5 0
89 61 0
-89 -61 0
36 96 0
-36 -96 0
40 58 0
-40 -58 0
71 54 0
-71 -54 0
111 118 0
-111 -118 0
117 93 0
-117 -93 0
25 96 0
-25 -96 0
55 95 0
-55 -95 0
70 56 0
-70 -56 0
57 111 0
-57 -111 0
86 9 0
-86 -9 0
118 93 0
-118 -93 0
78 68 0
-78 -68 0
111 12 0
-111 -12 0
130 58 0
-130 -58 0
127 139 0
-127 -139 0
62 43 0
-62 -43 0
111 21 0
-111 -21 0
59 81 0
-59 -81 0
72 102 0
-72 -102 0
131 97 0
-131 -97 0
105 60 0
-105 -60 0
16 67 0
-16 -67 0
6 136 0
-6 -136 0
98 33 0
-98 -33 0
77 122 0
-77 -122 0
11 110 0
-11 -110 0
53 3 0
-53 -3 0
137 118 0
-137 -118 0
51 136 0
-51 -136 0
57 33 0
-57 -33 0
9 56 0
-9 -56 0
15 128 0
-15 -128 0
74 60 0
-74 -60 0
27 46 0
-27 -46 0
62 14 0
-62 -14 0
91 124 0
-91 -124 0
7 137 0
-7 -137 0
79 67 0
-79 -67 0
66 97 0
-66 -97 0
97 30 0
-97 -30 0
53 5 0
-53 -5 0
1 116 0
-1 -116 0
91 97 0
-91 -97 0
19 88 0
-19 -88 0
49 90 0
-49 -90 0
17 93 0
-17 -93 0
28 117 0
-28 -117 0
6 79 0
-6 -79 0
32 53 0
-32 -53 0
39 101 0
-39 -101 0
103 111 0
-103 -111 0
81 102 0
-81 -102 0
32 120 0
-32 -120 0
12 10 0
-12 -10 0
4 113 0
-4 -113 0
24 108 0
-24 -108 0
105 85 0
-105 -85 0
28 29 0
-28 -29 0
92 61 0
-92 -61 0
42 68 0
-42 -68 0
35 96 0
-35 -96 0
130 101 0
-130 -101 0
20 91 0
-20 -91 0
139 93 0
-139 -93 0
71 7 0
-71 -7 0
138 14 0
-138 -14 0
38 94 0
-38 -94 0
121 128 0
-121 -128 0
20 100 0
-20 -100 0
110 90 0
-110 -90 0
29 87 0
-29 -87 0
17 134 0
-17 -134 0
61 5 0
-61 -5 0
107 101 0
-107 -101 0
8 67 0
-8 -67 0
24 12 0
-24 -12 0
117 63 0
-117 -63 0
69 136 0
-69 -136 0
9 93 0
-9 -93 0
111 138 0
-111 -138 0
17 105 0
-17 -105 0
119 64 0
-119 -64 0
92 30 0
-92 -30 0
134 61 0
-134 -61 0
106 42 0
-106 -42 0
44 6 0
-44 -6 0
122 135 0
-122 -135 0
75 66 0
-75 -66 0
19 83 0
-19 -83 0
42 73 0
-42 -73 0
122 65 0
-122 -65 0
75 68 0
-75 -68 0
57 46 0
-57 -46 0
117 119 0
-117 -119 0
133 52 0
-133 -52 0
137 94 0
-137 -94 0
106 35 0
-106 -35 0
15 47 0
-15 -47 0
106 105 0
-106 -105 0
40 60 0
-40 -60 0
137 100 0
-137 -100 0
59 94 0
-59 -94 0
137 30 0
-137 -30 0
125 43 0
-125 -43 0
70 130 0
-70 -130 0
58 79 0
-58 -79 0
57 16 0
-57 -16 0
31 43 0
-31 -43 0
119 79 0
-119 -79 0
35 14 0
-35 -14 0
25 115 0
-25 -115 0
57 64 0
-57 -64 0
140 1 0
-140 -1 0
125 100 0
-125 -100 0
70 88 0
-70 -88 0
24 13 0
-24 -13 0
112 40 0
-112 -40 0
60 102 0
-60 -102 0
91 100 0
-91 -100 0
38 40 0
-38 -40 0
41 126 0
-41 -126 0
43 126 0
-43 -126 0
107 78 0
-107 -78 0
108 63 0
-108 -63 0
29 73 0
-29 -73 0
38 86 0
-38 -86 0
98 75 0
-98 -75 0
38 123 0
-38 -123 0
23 10 0
-23 -10 0
71 23 0
-71 -23 0
72 58 0
-72 -58 0
130 30 0
-130 -30 0
51 15 0
-51 -15 0
14 58 0
-14 -58 0
117 80 0
-117 -80 0
68 80 0
-68 -80 0
8 15 0
-8 -15 0
63 136 0
-63 -136 0
1 120 0
-1 -120 0
27 123 0
-27 -123 0
51 134 0
-51 -134 0
21 82 0
-21 -82 0
49 67 0
-49 -67 0
111 81 0
-111 -81 0
140 136 0
-140 -136 0
115 123 0
-115 -123 0
70 16 0
-70 -16 0
37 52 0
-37 -52 0
22 6 0
-22 -6 0
9 55 0
-9 -55 0
29 15 0
-29 -15 0
140 64 0
-140 -64 0
32 96 0
-32 -96 0
114 100 0
-114 -100 0
119 133 0
-119 -133 0
52 89 0
-52 -89 0
93 81 0
-93 -81 0
63 42 0
-63 -42 0
106 22 0
-106 -22 0
28 92 0
-28 -92 0
35 83 0
-35 -83 0
76 112 0
-76 -112 0
57 138 0
-57 -138 0
130 12 0
-130 -12 0
1 88 0
-1 -88 0
31 137 0
-31 -137 0
132 59 0
-132 -59 0
27 12 0
-27 -12 0
37 90 0
-37 -90 0
136 137 0
-136 -137 0
25 83 0
-25 -83 0
133 55 0
-133 -55 0
83 118 0
-83 -118 0
2 41 0
-2 -41 0
3 54 0
-3 -54 0
45 52 0
-45 -52 0
71 127 0
-71 -127 0
86 83 0
-86 -83 0
9 113 0
-9 -113 0
77 82 0
-77 -82 0
85 90 0
-85 -90 0
87 101 0
-87 -101 0
51 79 0
-51 -79 0
86 22 0
-86 -22 0
25 34 0
-25 -34 0
111 105 0
-111 -105 0
91 16 0
-91 -16 0
38 111 0
-38 -111 0
41 124 0
-41 -124 0
19 131 0
-19 -131 0
72 78 0
-72 -78 0
100 68 0
-100 -68 0
48 87 0
-48 -87 0
103 89 0
-103 -89 0
115 66 0
-115 -66 0
117 125 0
-117 -125 0
123 82 0
-123 -82 0
9 84 0
-9 -84 0
124 100 0
-124 -100 0
114 46 0
-114 -46 0
72 138 0
-72 -138 0
138 136 0
-138 -136 0
28 114 0
-28 -114 0
44 121 0
-44 -121 0
32 51 0
-32 -51 0
140 112 0
-140 -112 0
88 79 0
-88 -79 0
112 4 0
-112 -4 0
17 56 0
-17 -56 0
138 134 0
-138 -134 0
10 90 0
-10 -90 0
