FourierSAT_Github_AIJ/res/fs_1core/maxcut-140-630-0.8-8.cnf.txt
o 188
o 179
